p cnf 555 2322
23 -3 -48 34 26 0
43 -15 -40 -13 -45 0
-33 -5 -18 -19 -45 0
30 -6 -42 -41 24 0
44 -42 1 -45 -18 0
10 21 38 -33 -25 0
-11 47 8 -30 15 0
15 -16 -23 -11 -21 0
15 -16 34 20 25 0
-25 42 -45 -20 -21 0
-4 -32 -9 -7 15 0
37 -24 -50 -3 18 0
-7 1 13 -26 -37 0
-14 -16 40 28 37 0
9 3 18 5 12 0
-4 43 -11 5 -42 0
30 13 20 17 3 0
39 36 -14 26 7 0
-13 -39 -44 8 -4 0
17 6 35 -31 20 0
16 44 -35 34 -10 0
46 -7 34 42 2 0
-3 -30 50 1 -35 0
-3 -24 27 4 25 0
-50 -28 48 33 -43 0
22 -27 28 -26 7 0
26 -41 -14 -29 44 0
-6 -21 46 10 29 0
49 -46 -42 -50 -3 0
-27 -46 -5 31 -32 0
-48 8 26 -42 50 0
30 -21 37 -41 -7 0
-39 -38 26 -49 28 0
-19 -44 -25 2 35 0
-36 11 -34 -17 5 0
42 36 24 6 -10 0
-43 36 18 -29 17 0
-35 -1 45 46 50 0
-6 22 -15 -36 21 0
13 48 47 -43 7 0
-16 -27 -50 -26 -20 0
-16 7 9 -29 -21 0
18 2 1 5 -44 0
-1 14 34 22 -24 0
-27 4 48 25 13 0
-46 -1 39 36 -25 0
-31 49 24 -29 -32 0
26 -16 35 8 49 0
-43 -10 -6 -11 34 0
41 -5 -44 11 46 0
7 -39 -12 41 47 0
41 -50 -15 28 26 0
45 -29 -4 38 24 0
-32 -46 -4 45 -50 0
37 14 -17 -44 -9 0
-45 22 8 -32 23 0
15 -28 20 -32 -24 0
13 7 -18 32 23 0
-25 -45 -17 41 38 0
-29 12 -28 -41 -22 0
-29 19 38 34 41 0
18 -4 21 25 -23 0
15 31 1 50 -39 0
16 9 42 -21 -33 0
38 9 45 50 44 0
-14 -3 37 -28 23 0
4 -15 -42 -34 -35 0
3 -25 -44 45 -5 0
19 -17 46 -32 -9 0
37 46 -5 -22 -23 0
-41 5 49 10 46 0
17 28 -1 15 -9 0
45 -39 27 40 14 0
-24 35 -20 -49 -11 0
-10 -7 -11 -17 -38 0
32 44 -23 -33 -39 0
16 26 10 19 15 0
43 -28 -10 39 -2 0
12 24 29 -23 22 0
2 6 5 -28 -31 0
-11 -14 40 38 -24 0
-13 -29 14 -33 -38 0
10 39 -26 13 25 0
46 10 -31 -37 -32 0
-6 -42 16 26 -45 0
32 29 7 6 -15 0
-18 4 -6 -39 50 0
19 -43 -12 50 -25 0
-1 -45 40 4 -49 0
22 39 -26 -14 23 0
-43 -15 -38 12 -37 0
40 -1 18 -23 -2 0
-40 -32 -25 -15 35 0
20 -36 46 -13 47 0
36 -16 -27 -11 45 0
-25 -30 34 -1 47 0
7 -47 -4 -24 11 0
-15 42 -7 -25 37 0
-7 23 41 -9 -2 0
-16 -15 -13 14 -4 0
2 35 41 11 12 0
-24 -48 -21 -16 25 0
-32 -8 27 1 -41 0
-22 26 43 28 29 0
1 -14 9 37 -16 0
-6 11 -49 -44 -13 0
23 6 27 -17 18 0
-19 24 -9 2 4 0
24 -4 47 36 -17 0
11 -6 -39 -33 2 0
-19 -47 -34 -35 10 0
39 19 -36 12 -4 0
-41 3 -18 -7 -21 0
-7 15 21 5 30 0
-41 -2 -25 -44 8 0
-39 11 21 22 12 0
42 29 33 47 -19 0
11 8 5 26 22 0
-7 -32 5 14 19 0
-30 -27 28 -11 46 0
-9 21 18 3 29 0
32 8 28 41 -30 0
10 13 47 43 24 0
-32 -18 -22 -5 -20 0
-2 29 -20 40 34 0
16 32 46 -47 -48 0
-40 33 -16 45 -26 0
-40 -29 8 37 -43 0
-50 -16 13 -41 9 0
-1 8 24 20 -49 0
-22 -45 -18 -8 -50 0
-47 -48 -46 7 -43 0
-39 -21 -13 -7 24 0
-3 50 35 1 27 0
-17 -29 7 27 45 0
-45 7 17 14 -10 0
-2 34 16 -49 23 0
-25 20 -39 37 -38 0
-36 12 17 -50 1 0
48 -3 -21 -17 -34 0
-30 48 1 -27 -28 0
-19 -17 15 45 -41 0
23 41 42 -1 29 0
17 26 -23 -22 10 0
-24 5 48 -19 -43 0
-1 32 -8 35 -6 0
44 -13 16 -28 4 0
-40 31 -2 37 48 0
2 -10 -46 -4 -48 0
-2 31 33 49 -22 0
4 44 -16 -33 -39 0
-3 -35 19 -49 40 0
3 -17 25 36 30 0
-4 -34 -33 11 6 0
30 17 -26 -16 23 0
25 -21 5 35 6 0
21 -18 10 16 25 0
-19 21 -46 28 13 0
7 50 40 9 -10 0
-49 -35 31 -14 -2 0
-47 -8 -44 -20 -32 0
40 31 -37 11 1 0
-46 9 8 -34 -12 0
-34 -31 -47 15 -6 0
28 12 17 45 -5 0
49 -32 39 -2 -40 0
-44 26 -15 38 -14 0
43 15 28 29 34 0
-44 -31 -15 -1 14 0
-33 -5 7 39 26 0
17 -1 27 -15 -41 0
26 50 -48 -2 -31 0
-38 33 22 44 -28 0
9 -31 -49 -40 12 0
-11 9 16 -42 14 0
6 2 -34 -39 1 0
-1 -49 -41 -21 -43 0
-44 -9 -40 -16 -21 0
-37 -22 16 -20 32 0
18 7 15 -11 8 0
-18 48 31 49 -19 0
-13 10 -40 1 -29 0
33 45 20 25 7 0
37 47 29 -44 -4 0
-49 21 19 50 -33 0
40 47 13 42 46 0
38 -19 -25 -13 -35 0
-42 -4 15 -48 -20 0
-20 -28 -33 18 16 0
16 2 -28 -50 -49 0
-44 -38 29 37 5 0
-20 -19 -15 33 8 0
39 -50 14 8 -6 0
31 -34 4 29 39 0
42 -19 7 23 -12 0
-48 37 -8 32 24 0
-4 -11 -36 -29 -5 0
-36 39 42 -5 -18 0
-7 -37 32 -26 11 0
-47 -9 -42 -35 -12 0
-26 43 -30 -45 36 0
41 -23 -31 -35 6 0
45 5 -49 -15 -9 0
-39 -31 35 40 -5 0
20 33 46 -2 -9 0
-31 34 -4 -36 -25 0
-22 -50 -24 -15 17 0
-42 38 -41 -8 30 0
49 42 15 -47 2 0
30 -8 -48 -38 40 0
10 16 -30 35 -17 0
19 33 21 25 30 0
40 22 14 -24 17 0
-26 18 33 -7 44 0
-23 24 -50 14 36 0
5 -29 -35 42 -49 0
45 41 -46 -36 26 0
-11 -32 34 -2 7 0
39 21 32 -28 -30 0
-35 -34 31 -50 13 0
-34 -38 5 26 9 0
-28 -44 6 33 24 0
36 -31 42 9 16 0
30 40 -12 -15 -18 0
-14 24 -7 -44 45 0
-38 20 -16 22 -30 0
-45 44 16 -20 25 0
25 39 -41 46 2 0
21 23 -39 -28 5 0
9 -14 5 -29 22 0
-19 6 27 -12 29 0
47 29 -12 23 -9 0
13 -5 -2 -24 48 0
8 31 5 15 43 0
6 30 -33 -1 38 0
-40 18 -33 27 -47 0
-37 12 26 -47 38 0
8 -19 21 -47 48 0
-46 31 -49 24 -8 0
21 -36 5 -39 -14 0
-14 50 -13 21 -48 0
25 34 -26 1 -20 0
43 -22 42 39 48 0
36 -5 -38 4 15 0
-39 11 45 -34 47 0
11 -13 17 -46 24 0
-40 -28 -46 2 -34 0
-45 -50 -37 -30 -9 0
42 37 16 9 -33 0
-20 -22 31 -6 -40 0
-1 2 51 0
1 2 -51 0
-1 -2 -51 0
1 -2 51 0
-3 4 52 0
3 4 -52 0
-3 -4 -52 0
3 -4 52 0
-5 -8 53 0
5 -8 -53 0
-5 8 -53 0
5 8 53 0
-9 -11 54 0
9 -11 -54 0
-9 11 -54 0
9 11 54 0
12 13 55 0
-12 13 -55 0
12 -13 -55 0
-12 -13 55 0
16 -17 56 0
-16 -17 -56 0
16 17 -56 0
-16 17 56 0
-22 -23 57 0
22 -23 -57 0
-22 23 -57 0
22 23 57 0
24 -25 58 0
-24 -25 -58 0
24 25 -58 0
-24 25 58 0
26 -27 59 0
-26 -27 -59 0
26 27 -59 0
-26 27 59 0
-31 34 60 0
31 34 -60 0
-31 -34 -60 0
31 -34 60 0
-35 -39 61 0
35 -39 -61 0
-35 39 -61 0
35 39 61 0
43 -45 62 0
-43 -45 -62 0
43 45 -62 0
-43 45 62 0
-48 49 63 0
48 49 -63 0
-48 -49 -63 0
48 -49 63 0
51 -52 64 0
-51 -52 -64 0
51 52 -64 0
-51 52 64 0
53 -54 65 0
-53 -54 -65 0
53 54 -65 0
-53 54 65 0
55 -56 66 0
-55 -56 -66 0
55 56 -66 0
-55 56 66 0
57 -58 67 0
-57 -58 -67 0
57 58 -67 0
-57 58 67 0
59 -60 68 0
-59 -60 -68 0
59 60 -68 0
-59 60 68 0
61 -62 69 0
-61 -62 -69 0
61 62 -69 0
-61 62 69 0
63 -64 70 0
-63 -64 -70 0
63 64 -70 0
-63 64 70 0
65 -66 71 0
-65 -66 -71 0
65 66 -71 0
-65 66 71 0
67 -68 72 0
-67 -68 -72 0
67 68 -72 0
-67 68 72 0
69 -70 73 0
-69 -70 -73 0
69 70 -73 0
-69 70 73 0
71 -72 74 0
-71 -72 -74 0
71 72 -74 0
-71 72 74 0
73 74 0
-73 -74 0
1 -2 75 0
-1 -2 -75 0
1 2 -75 0
-1 2 75 0
-3 6 76 0
3 6 -76 0
-3 -6 -76 0
3 -6 76 0
-7 8 77 0
7 8 -77 0
-7 -8 -77 0
7 -8 77 0
9 -11 78 0
-9 -11 -78 0
9 11 -78 0
-9 11 78 0
-12 -13 79 0
12 -13 -79 0
-12 13 -79 0
12 13 79 0
15 16 80 0
-15 16 -80 0
15 -16 -80 0
-15 -16 80 0
17 -18 81 0
-17 -18 -81 0
17 18 -81 0
-17 18 81 0
-19 25 82 0
19 25 -82 0
-19 -25 -82 0
19 -25 82 0
-26 28 83 0
26 28 -83 0
-26 -28 -83 0
26 -28 83 0
-29 32 84 0
29 32 -84 0
-29 -32 -84 0
29 -32 84 0
-33 34 85 0
33 34 -85 0
-33 -34 -85 0
33 -34 85 0
36 -37 86 0
-36 -37 -86 0
36 37 -86 0
-36 37 86 0
-39 40 87 0
39 40 -87 0
-39 -40 -87 0
39 -40 87 0
-42 -46 88 0
42 -46 -88 0
-42 46 -88 0
42 46 88 0
74 -75 89 0
-74 -75 -89 0
74 75 -89 0
-74 75 89 0
76 -77 90 0
-76 -77 -90 0
76 77 -90 0
-76 77 90 0
78 -79 91 0
-78 -79 -91 0
78 79 -91 0
-78 79 91 0
80 -81 92 0
-80 -81 -92 0
80 81 -92 0
-80 81 92 0
82 -83 93 0
-82 -83 -93 0
82 83 -93 0
-82 83 93 0
84 -85 94 0
-84 -85 -94 0
84 85 -94 0
-84 85 94 0
86 -87 95 0
-86 -87 -95 0
86 87 -95 0
-86 87 95 0
88 -89 96 0
-88 -89 -96 0
88 89 -96 0
-88 89 96 0
90 -91 97 0
-90 -91 -97 0
90 91 -97 0
-90 91 97 0
92 -93 98 0
-92 -93 -98 0
92 93 -98 0
-92 93 98 0
94 -95 99 0
-94 -95 -99 0
94 95 -99 0
-94 95 99 0
96 -97 100 0
-96 -97 -100 0
96 97 -100 0
-96 97 100 0
98 -99 101 0
-98 -99 -101 0
98 99 -101 0
-98 99 101 0
100 101 0
-100 -101 0
-1 -2 102 0
1 -2 -102 0
-1 2 -102 0
1 2 102 0
-7 -8 103 0
7 -8 -103 0
-7 8 -103 0
7 8 103 0
-12 13 104 0
12 13 -104 0
-12 -13 -104 0
12 -13 104 0
14 15 105 0
-14 15 -105 0
14 -15 -105 0
-14 -15 105 0
17 -18 106 0
-17 -18 -106 0
17 18 -106 0
-17 18 106 0
19 20 107 0
-19 20 -107 0
19 -20 -107 0
-19 -20 107 0
22 24 108 0
-22 24 -108 0
22 -24 -108 0
-22 -24 108 0
-26 -29 109 0
26 -29 -109 0
-26 29 -109 0
26 29 109 0
30 33 110 0
-30 33 -110 0
30 -33 -110 0
-30 -33 110 0
34 -36 111 0
-34 -36 -111 0
34 36 -111 0
-34 36 111 0
37 38 112 0
-37 38 -112 0
37 -38 -112 0
-37 -38 112 0
39 -41 113 0
-39 -41 -113 0
39 41 -113 0
-39 41 113 0
-45 -49 114 0
45 -49 -114 0
-45 49 -114 0
45 49 114 0
102 -103 115 0
-102 -103 -115 0
102 103 -115 0
-102 103 115 0
104 -105 116 0
-104 -105 -116 0
104 105 -116 0
-104 105 116 0
106 -107 117 0
-106 -107 -117 0
106 107 -117 0
-106 107 117 0
108 -109 118 0
-108 -109 -118 0
108 109 -118 0
-108 109 118 0
110 -111 119 0
-110 -111 -119 0
110 111 -119 0
-110 111 119 0
112 -113 120 0
-112 -113 -120 0
112 113 -120 0
-112 113 120 0
114 -115 121 0
-114 -115 -121 0
114 115 -121 0
-114 115 121 0
116 -117 122 0
-116 -117 -122 0
116 117 -122 0
-116 117 122 0
118 -119 123 0
-118 -119 -123 0
118 119 -123 0
-118 119 123 0
120 -121 124 0
-120 -121 -124 0
120 121 -124 0
-120 121 124 0
122 -123 125 0
-122 -123 -125 0
122 123 -125 0
-122 123 125 0
124 125 0
-124 -125 0
-1 -4 126 0
1 -4 -126 0
-1 4 -126 0
1 4 126 0
-7 9 127 0
7 9 -127 0
-7 -9 -127 0
7 -9 127 0
-11 12 128 0
11 12 -128 0
-11 -12 -128 0
11 -12 128 0
-13 15 129 0
13 15 -129 0
-13 -15 -129 0
13 -15 129 0
-17 -19 130 0
17 -19 -130 0
-17 19 -130 0
17 19 130 0
22 -24 131 0
-22 -24 -131 0
22 24 -131 0
-22 24 131 0
-25 27 132 0
25 27 -132 0
-25 -27 -132 0
25 -27 132 0
29 33 133 0
-29 33 -133 0
29 -33 -133 0
-29 -33 133 0
35 -36 134 0
-35 -36 -134 0
35 36 -134 0
-35 36 134 0
37 38 135 0
-37 38 -135 0
37 -38 -135 0
-37 -38 135 0
-39 43 136 0
39 43 -136 0
-39 -43 -136 0
39 -43 136 0
-45 49 137 0
45 49 -137 0
-45 -49 -137 0
45 -49 137 0
126 -127 138 0
-126 -127 -138 0
126 127 -138 0
-126 127 138 0
128 -129 139 0
-128 -129 -139 0
128 129 -139 0
-128 129 139 0
130 -131 140 0
-130 -131 -140 0
130 131 -140 0
-130 131 140 0
132 -133 141 0
-132 -133 -141 0
132 133 -141 0
-132 133 141 0
134 -135 142 0
-134 -135 -142 0
134 135 -142 0
-134 135 142 0
136 -137 143 0
-136 -137 -143 0
136 137 -143 0
-136 137 143 0
138 -139 144 0
-138 -139 -144 0
138 139 -144 0
-138 139 144 0
140 -141 145 0
-140 -141 -145 0
140 141 -145 0
-140 141 145 0
142 -143 146 0
-142 -143 -146 0
142 143 -146 0
-142 143 146 0
-144 -145 146 0
144 -145 -146 0
-144 145 -146 0
144 145 146 0
1 -2 147 0
-1 -2 -147 0
1 2 -147 0
-1 2 147 0
-3 -4 148 0
3 -4 -148 0
-3 4 -148 0
3 4 148 0
5 6 149 0
-5 6 -149 0
5 -6 -149 0
-5 -6 149 0
7 -9 150 0
-7 -9 -150 0
7 9 -150 0
-7 9 150 0
10 -15 151 0
-10 -15 -151 0
10 15 -151 0
-10 15 151 0
17 19 152 0
-17 19 -152 0
17 -19 -152 0
-17 -19 152 0
-23 24 153 0
23 24 -153 0
-23 -24 -153 0
23 -24 153 0
-25 26 154 0
25 26 -154 0
-25 -26 -154 0
25 -26 154 0
28 -30 155 0
-28 -30 -155 0
28 30 -155 0
-28 30 155 0
-31 -35 156 0
31 -35 -156 0
-31 35 -156 0
31 35 156 0
37 -43 157 0
-37 -43 -157 0
37 43 -157 0
-37 43 157 0
44 -48 158 0
-44 -48 -158 0
44 48 -158 0
-44 48 158 0
146 -147 159 0
-146 -147 -159 0
146 147 -159 0
-146 147 159 0
148 -149 160 0
-148 -149 -160 0
148 149 -160 0
-148 149 160 0
150 -151 161 0
-150 -151 -161 0
150 151 -161 0
-150 151 161 0
152 -153 162 0
-152 -153 -162 0
152 153 -162 0
-152 153 162 0
154 -155 163 0
-154 -155 -163 0
154 155 -163 0
-154 155 163 0
156 -157 164 0
-156 -157 -164 0
156 157 -164 0
-156 157 164 0
158 -159 165 0
-158 -159 -165 0
158 159 -165 0
-158 159 165 0
160 -161 166 0
-160 -161 -166 0
160 161 -166 0
-160 161 166 0
162 -163 167 0
-162 -163 -167 0
162 163 -167 0
-162 163 167 0
164 -165 168 0
-164 -165 -168 0
164 165 -168 0
-164 165 168 0
166 -167 169 0
-166 -167 -169 0
166 167 -169 0
-166 167 169 0
168 169 0
-168 -169 0
-3 5 170 0
3 5 -170 0
-3 -5 -170 0
3 -5 170 0
-6 8 171 0
6 8 -171 0
-6 -8 -171 0
6 -8 171 0
-10 -17 172 0
10 -17 -172 0
-10 17 -172 0
10 17 172 0
18 19 173 0
-18 19 -173 0
18 -19 -173 0
-18 -19 173 0
20 -22 174 0
-20 -22 -174 0
20 22 -174 0
-20 22 174 0
-23 -24 175 0
23 -24 -175 0
-23 24 -175 0
23 24 175 0
25 27 176 0
-25 27 -176 0
25 -27 -176 0
-25 -27 176 0
29 31 177 0
-29 31 -177 0
29 -31 -177 0
-29 -31 177 0
32 -34 178 0
-32 -34 -178 0
32 34 -178 0
-32 34 178 0
-36 37 179 0
36 37 -179 0
-36 -37 -179 0
36 -37 179 0
-38 39 180 0
38 39 -180 0
-38 -39 -180 0
38 -39 180 0
41 43 181 0
-41 43 -181 0
41 -43 -181 0
-41 -43 181 0
44 -46 182 0
-44 -46 -182 0
44 46 -182 0
-44 46 182 0
48 -49 183 0
-48 -49 -183 0
48 49 -183 0
-48 49 183 0
170 -171 184 0
-170 -171 -184 0
170 171 -184 0
-170 171 184 0
172 -173 185 0
-172 -173 -185 0
172 173 -185 0
-172 173 185 0
174 -175 186 0
-174 -175 -186 0
174 175 -186 0
-174 175 186 0
176 -177 187 0
-176 -177 -187 0
176 177 -187 0
-176 177 187 0
178 -179 188 0
-178 -179 -188 0
178 179 -188 0
-178 179 188 0
180 -181 189 0
-180 -181 -189 0
180 181 -189 0
-180 181 189 0
182 -183 190 0
-182 -183 -190 0
182 183 -190 0
-182 183 190 0
184 -185 191 0
-184 -185 -191 0
184 185 -191 0
-184 185 191 0
186 -187 192 0
-186 -187 -192 0
186 187 -192 0
-186 187 192 0
188 -189 193 0
-188 -189 -193 0
188 189 -193 0
-188 189 193 0
190 -191 194 0
-190 -191 -194 0
190 191 -194 0
-190 191 194 0
192 -193 195 0
-192 -193 -195 0
192 193 -195 0
-192 193 195 0
194 195 0
-194 -195 0
-1 4 196 0
1 4 -196 0
-1 -4 -196 0
1 -4 196 0
8 9 197 0
-8 9 -197 0
8 -9 -197 0
-8 -9 197 0
11 -13 198 0
-11 -13 -198 0
11 13 -198 0
-11 13 198 0
14 16 199 0
-14 16 -199 0
14 -16 -199 0
-14 -16 199 0
17 19 200 0
-17 19 -200 0
17 -19 -200 0
-17 -19 200 0
-21 -22 201 0
21 -22 -201 0
-21 22 -201 0
21 22 201 0
27 -30 202 0
-27 -30 -202 0
27 30 -202 0
-27 30 202 0
32 34 203 0
-32 34 -203 0
32 -34 -203 0
-32 -34 203 0
-35 36 204 0
35 36 -204 0
-35 -36 -204 0
35 -36 204 0
37 -39 205 0
-37 -39 -205 0
37 39 -205 0
-37 39 205 0
41 -44 206 0
-41 -44 -206 0
41 44 -206 0
-41 44 206 0
47 49 207 0
-47 49 -207 0
47 -49 -207 0
-47 -49 207 0
196 -197 208 0
-196 -197 -208 0
196 197 -208 0
-196 197 208 0
198 -199 209 0
-198 -199 -209 0
198 199 -209 0
-198 199 209 0
200 -201 210 0
-200 -201 -210 0
200 201 -210 0
-200 201 210 0
202 -203 211 0
-202 -203 -211 0
202 203 -211 0
-202 203 211 0
204 -205 212 0
-204 -205 -212 0
204 205 -212 0
-204 205 212 0
206 -207 213 0
-206 -207 -213 0
206 207 -213 0
-206 207 213 0
208 -209 214 0
-208 -209 -214 0
208 209 -214 0
-208 209 214 0
210 -211 215 0
-210 -211 -215 0
210 211 -215 0
-210 211 215 0
212 -213 216 0
-212 -213 -216 0
212 213 -216 0
-212 213 216 0
-214 -215 216 0
214 -215 -216 0
-214 215 -216 0
214 215 216 0
2 3 217 0
-2 3 -217 0
2 -3 -217 0
-2 -3 217 0
5 -6 218 0
-5 -6 -218 0
5 6 -218 0
-5 6 218 0
-8 -10 219 0
8 -10 -219 0
-8 10 -219 0
8 10 219 0
12 13 220 0
-12 13 -220 0
12 -13 -220 0
-12 -13 220 0
14 16 221 0
-14 16 -221 0
14 -16 -221 0
-14 -16 221 0
17 -18 222 0
-17 -18 -222 0
17 18 -222 0
-17 18 222 0
-19 20 223 0
19 20 -223 0
-19 -20 -223 0
19 -20 223 0
21 -22 224 0
-21 -22 -224 0
21 22 -224 0
-21 22 224 0
24 25 225 0
-24 25 -225 0
24 -25 -225 0
-24 -25 225 0
-27 -28 226 0
27 -28 -226 0
-27 28 -226 0
27 28 226 0
29 -30 227 0
-29 -30 -227 0
29 30 -227 0
-29 30 227 0
-32 -37 228 0
32 -37 -228 0
-32 37 -228 0
32 37 228 0
-38 39 229 0
38 39 -229 0
-38 -39 -229 0
38 -39 229 0
-40 41 230 0
40 41 -230 0
-40 -41 -230 0
40 -41 230 0
42 -43 231 0
-42 -43 -231 0
42 43 -231 0
-42 43 231 0
-44 -45 232 0
44 -45 -232 0
-44 45 -232 0
44 45 232 0
-48 -50 233 0
48 -50 -233 0
-48 50 -233 0
48 50 233 0
217 -218 234 0
-217 -218 -234 0
217 218 -234 0
-217 218 234 0
219 -220 235 0
-219 -220 -235 0
219 220 -235 0
-219 220 235 0
221 -222 236 0
-221 -222 -236 0
221 222 -236 0
-221 222 236 0
223 -224 237 0
-223 -224 -237 0
223 224 -237 0
-223 224 237 0
225 -226 238 0
-225 -226 -238 0
225 226 -238 0
-225 226 238 0
227 -228 239 0
-227 -228 -239 0
227 228 -239 0
-227 228 239 0
229 -230 240 0
-229 -230 -240 0
229 230 -240 0
-229 230 240 0
231 -232 241 0
-231 -232 -241 0
231 232 -241 0
-231 232 241 0
233 -234 242 0
-233 -234 -242 0
233 234 -242 0
-233 234 242 0
235 -236 243 0
-235 -236 -243 0
235 236 -243 0
-235 236 243 0
237 -238 244 0
-237 -238 -244 0
237 238 -244 0
-237 238 244 0
239 -240 245 0
-239 -240 -245 0
239 240 -245 0
-239 240 245 0
241 -242 246 0
-241 -242 -246 0
241 242 -246 0
-241 242 246 0
243 -244 247 0
-243 -244 -247 0
243 244 -247 0
-243 244 247 0
-245 -246 247 0
245 -246 -247 0
-245 246 -247 0
245 246 247 0
-1 2 248 0
1 2 -248 0
-1 -2 -248 0
1 -2 248 0
3 -5 249 0
-3 -5 -249 0
3 5 -249 0
-3 5 249 0
-7 -10 250 0
7 -10 -250 0
-7 10 -250 0
7 10 250 0
11 -15 251 0
-11 -15 -251 0
11 15 -251 0
-11 15 251 0
16 17 252 0
-16 17 -252 0
16 -17 -252 0
-16 -17 252 0
18 -19 253 0
-18 -19 -253 0
18 19 -253 0
-18 19 253 0
-25 -26 254 0
25 -26 -254 0
-25 26 -254 0
25 26 254 0
-29 -31 255 0
29 -31 -255 0
-29 31 -255 0
29 31 255 0
34 35 256 0
-34 35 -256 0
34 -35 -256 0
-34 -35 256 0
39 40 257 0
-39 40 -257 0
39 -40 -257 0
-39 -40 257 0
41 44 258 0
-41 44 -258 0
41 -44 -258 0
-41 -44 258 0
45 46 259 0
-45 46 -259 0
45 -46 -259 0
-45 -46 259 0
-48 -50 260 0
48 -50 -260 0
-48 50 -260 0
48 50 260 0
248 -249 261 0
-248 -249 -261 0
248 249 -261 0
-248 249 261 0
250 -251 262 0
-250 -251 -262 0
250 251 -262 0
-250 251 262 0
252 -253 263 0
-252 -253 -263 0
252 253 -263 0
-252 253 263 0
254 -255 264 0
-254 -255 -264 0
254 255 -264 0
-254 255 264 0
256 -257 265 0
-256 -257 -265 0
256 257 -265 0
-256 257 265 0
258 -259 266 0
-258 -259 -266 0
258 259 -266 0
-258 259 266 0
260 -261 267 0
-260 -261 -267 0
260 261 -267 0
-260 261 267 0
262 -263 268 0
-262 -263 -268 0
262 263 -268 0
-262 263 268 0
264 -265 269 0
-264 -265 -269 0
264 265 -269 0
-264 265 269 0
266 -267 270 0
-266 -267 -270 0
266 267 -270 0
-266 267 270 0
268 -269 271 0
-268 -269 -271 0
268 269 -271 0
-268 269 271 0
270 271 0
-270 -271 0
-1 -2 272 0
1 -2 -272 0
-1 2 -272 0
1 2 272 0
3 4 273 0
-3 4 -273 0
3 -4 -273 0
-3 -4 273 0
5 -6 274 0
-5 -6 -274 0
5 6 -274 0
-5 6 274 0
-7 -10 275 0
7 -10 -275 0
-7 10 -275 0
7 10 275 0
12 13 276 0
-12 13 -276 0
12 -13 -276 0
-12 -13 276 0
14 15 277 0
-14 15 -277 0
14 -15 -277 0
-14 -15 277 0
16 18 278 0
-16 18 -278 0
16 -18 -278 0
-16 -18 278 0
-19 -21 279 0
19 -21 -279 0
-19 21 -279 0
19 21 279 0
24 -26 280 0
-24 -26 -280 0
24 26 -280 0
-24 26 280 0
27 -28 281 0
-27 -28 -281 0
27 28 -281 0
-27 28 281 0
-29 -31 282 0
29 -31 -282 0
-29 31 -282 0
29 31 282 0
-33 34 283 0
33 34 -283 0
-33 -34 -283 0
33 -34 283 0
35 -37 284 0
-35 -37 -284 0
35 37 -284 0
-35 37 284 0
40 -41 285 0
-40 -41 -285 0
40 41 -285 0
-40 41 285 0
-42 45 286 0
42 45 -286 0
-42 -45 -286 0
42 -45 286 0
-46 -48 287 0
46 -48 -287 0
-46 48 -287 0
46 48 287 0
271 -272 288 0
-271 -272 -288 0
271 272 -288 0
-271 272 288 0
273 -274 289 0
-273 -274 -289 0
273 274 -289 0
-273 274 289 0
275 -276 290 0
-275 -276 -290 0
275 276 -290 0
-275 276 290 0
277 -278 291 0
-277 -278 -291 0
277 278 -291 0
-277 278 291 0
279 -280 292 0
-279 -280 -292 0
279 280 -292 0
-279 280 292 0
281 -282 293 0
-281 -282 -293 0
281 282 -293 0
-281 282 293 0
283 -284 294 0
-283 -284 -294 0
283 284 -294 0
-283 284 294 0
285 -286 295 0
-285 -286 -295 0
285 286 -295 0
-285 286 295 0
287 -288 296 0
-287 -288 -296 0
287 288 -296 0
-287 288 296 0
289 -290 297 0
-289 -290 -297 0
289 290 -297 0
-289 290 297 0
291 -292 298 0
-291 -292 -298 0
291 292 -298 0
-291 292 298 0
293 -294 299 0
-293 -294 -299 0
293 294 -299 0
-293 294 299 0
295 -296 300 0
-295 -296 -300 0
295 296 -300 0
-295 296 300 0
297 -298 301 0
-297 -298 -301 0
297 298 -301 0
-297 298 301 0
-299 -300 301 0
299 -300 -301 0
-299 300 -301 0
299 300 301 0
-2 3 302 0
2 3 -302 0
-2 -3 -302 0
2 -3 302 0
6 8 303 0
-6 8 -303 0
6 -8 -303 0
-6 -8 303 0
-9 -10 304 0
9 -10 -304 0
-9 10 -304 0
9 10 304 0
11 12 305 0
-11 12 -305 0
11 -12 -305 0
-11 -12 305 0
13 -15 306 0
-13 -15 -306 0
13 15 -306 0
-13 15 306 0
-17 18 307 0
17 18 -307 0
-17 -18 -307 0
17 -18 307 0
19 -20 308 0
-19 -20 -308 0
19 20 -308 0
-19 20 308 0
-22 23 309 0
22 23 -309 0
-22 -23 -309 0
22 -23 309 0
24 26 310 0
-24 26 -310 0
24 -26 -310 0
-24 -26 310 0
28 -30 311 0
-28 -30 -311 0
28 30 -311 0
-28 30 311 0
-31 32 312 0
31 32 -312 0
-31 -32 -312 0
31 -32 312 0
-33 35 313 0
33 35 -313 0
-33 -35 -313 0
33 -35 313 0
37 39 314 0
-37 39 -314 0
37 -39 -314 0
-37 -39 314 0
41 42 315 0
-41 42 -315 0
41 -42 -315 0
-41 -42 315 0
-43 44 316 0
43 44 -316 0
-43 -44 -316 0
43 -44 316 0
-48 50 317 0
48 50 -317 0
-48 -50 -317 0
48 -50 317 0
302 -303 318 0
-302 -303 -318 0
302 303 -318 0
-302 303 318 0
304 -305 319 0
-304 -305 -319 0
304 305 -319 0
-304 305 319 0
306 -307 320 0
-306 -307 -320 0
306 307 -320 0
-306 307 320 0
308 -309 321 0
-308 -309 -321 0
308 309 -321 0
-308 309 321 0
310 -311 322 0
-310 -311 -322 0
310 311 -322 0
-310 311 322 0
312 -313 323 0
-312 -313 -323 0
312 313 -323 0
-312 313 323 0
314 -315 324 0
-314 -315 -324 0
314 315 -324 0
-314 315 324 0
316 -317 325 0
-316 -317 -325 0
316 317 -325 0
-316 317 325 0
318 -319 326 0
-318 -319 -326 0
318 319 -326 0
-318 319 326 0
320 -321 327 0
-320 -321 -327 0
320 321 -327 0
-320 321 327 0
322 -323 328 0
-322 -323 -328 0
322 323 -328 0
-322 323 328 0
324 -325 329 0
-324 -325 -329 0
324 325 -329 0
-324 325 329 0
326 -327 330 0
-326 -327 -330 0
326 327 -330 0
-326 327 330 0
328 -329 331 0
-328 -329 -331 0
328 329 -331 0
-328 329 331 0
330 331 0
-330 -331 0
3 4 332 0
-3 4 -332 0
3 -4 -332 0
-3 -4 332 0
5 6 333 0
-5 6 -333 0
5 -6 -333 0
-5 -6 333 0
10 -11 334 0
-10 -11 -334 0
10 11 -334 0
-10 11 334 0
-13 -14 335 0
13 -14 -335 0
-13 14 -335 0
13 14 335 0
16 -17 336 0
-16 -17 -336 0
16 17 -336 0
-16 17 336 0
-19 21 337 0
19 21 -337 0
-19 -21 -337 0
19 -21 337 0
-23 27 338 0
23 27 -338 0
-23 -27 -338 0
23 -27 338 0
-28 -29 339 0
28 -29 -339 0
-28 29 -339 0
28 29 339 0
-31 -33 340 0
31 -33 -340 0
-31 33 -340 0
31 33 340 0
-38 39 341 0
38 39 -341 0
-38 -39 -341 0
38 -39 341 0
40 -42 342 0
-40 -42 -342 0
40 42 -342 0
-40 42 342 0
47 -48 343 0
-47 -48 -343 0
47 48 -343 0
-47 48 343 0
331 -332 344 0
-331 -332 -344 0
331 332 -344 0
-331 332 344 0
333 -334 345 0
-333 -334 -345 0
333 334 -345 0
-333 334 345 0
335 -336 346 0
-335 -336 -346 0
335 336 -346 0
-335 336 346 0
337 -338 347 0
-337 -338 -347 0
337 338 -347 0
-337 338 347 0
339 -340 348 0
-339 -340 -348 0
339 340 -348 0
-339 340 348 0
341 -342 349 0
-341 -342 -349 0
341 342 -349 0
-341 342 349 0
343 -344 350 0
-343 -344 -350 0
343 344 -350 0
-343 344 350 0
345 -346 351 0
-345 -346 -351 0
345 346 -351 0
-345 346 351 0
347 -348 352 0
-347 -348 -352 0
347 348 -352 0
-347 348 352 0
349 -350 353 0
-349 -350 -353 0
349 350 -353 0
-349 350 353 0
351 -352 354 0
-351 -352 -354 0
351 352 -354 0
-351 352 354 0
353 354 0
-353 -354 0
-1 3 355 0
1 3 -355 0
-1 -3 -355 0
1 -3 355 0
-4 -10 356 0
4 -10 -356 0
-4 10 -356 0
4 10 356 0
-11 -14 357 0
11 -14 -357 0
-11 14 -357 0
11 14 357 0
16 -17 358 0
-16 -17 -358 0
16 17 -358 0
-16 17 358 0
18 20 359 0
-18 20 -359 0
18 -20 -359 0
-18 -20 359 0
25 27 360 0
-25 27 -360 0
25 -27 -360 0
-25 -27 360 0
31 -32 361 0
-31 -32 -361 0
31 32 -361 0
-31 32 361 0
34 35 362 0
-34 35 -362 0
34 -35 -362 0
-34 -35 362 0
39 -41 363 0
-39 -41 -363 0
39 41 -363 0
-39 41 363 0
42 44 364 0
-42 44 -364 0
42 -44 -364 0
-42 -44 364 0
45 46 365 0
-45 46 -365 0
45 -46 -365 0
-45 -46 365 0
-47 49 366 0
47 49 -366 0
-47 -49 -366 0
47 -49 366 0
354 -355 367 0
-354 -355 -367 0
354 355 -367 0
-354 355 367 0
356 -357 368 0
-356 -357 -368 0
356 357 -368 0
-356 357 368 0
358 -359 369 0
-358 -359 -369 0
358 359 -369 0
-358 359 369 0
360 -361 370 0
-360 -361 -370 0
360 361 -370 0
-360 361 370 0
362 -363 371 0
-362 -363 -371 0
362 363 -371 0
-362 363 371 0
364 -365 372 0
-364 -365 -372 0
364 365 -372 0
-364 365 372 0
366 -367 373 0
-366 -367 -373 0
366 367 -373 0
-366 367 373 0
368 -369 374 0
-368 -369 -374 0
368 369 -374 0
-368 369 374 0
370 -371 375 0
-370 -371 -375 0
370 371 -375 0
-370 371 375 0
372 -373 376 0
-372 -373 -376 0
372 373 -376 0
-372 373 376 0
374 -375 377 0
-374 -375 -377 0
374 375 -377 0
-374 375 377 0
376 377 0
-376 -377 0
1 -6 378 0
-1 -6 -378 0
1 6 -378 0
-1 6 378 0
7 -9 379 0
-7 -9 -379 0
7 9 -379 0
-7 9 379 0
14 -19 380 0
-14 -19 -380 0
14 19 -380 0
-14 19 380 0
20 22 381 0
-20 22 -381 0
20 -22 -381 0
-20 -22 381 0
23 25 382 0
-23 25 -382 0
23 -25 -382 0
-23 -25 382 0
-29 30 383 0
29 30 -383 0
-29 -30 -383 0
29 -30 383 0
31 -32 384 0
-31 -32 -384 0
31 32 -384 0
-31 32 384 0
34 37 385 0
-34 37 -385 0
34 -37 -385 0
-34 -37 385 0
39 -41 386 0
-39 -41 -386 0
39 41 -386 0
-39 41 386 0
-42 -44 387 0
42 -44 -387 0
-42 44 -387 0
42 44 387 0
-46 47 388 0
46 47 -388 0
-46 -47 -388 0
46 -47 388 0
-48 49 389 0
48 49 -389 0
-48 -49 -389 0
48 -49 389 0
377 -378 390 0
-377 -378 -390 0
377 378 -390 0
-377 378 390 0
379 -380 391 0
-379 -380 -391 0
379 380 -391 0
-379 380 391 0
381 -382 392 0
-381 -382 -392 0
381 382 -392 0
-381 382 392 0
383 -384 393 0
-383 -384 -393 0
383 384 -393 0
-383 384 393 0
385 -386 394 0
-385 -386 -394 0
385 386 -394 0
-385 386 394 0
387 -388 395 0
-387 -388 -395 0
387 388 -395 0
-387 388 395 0
389 -390 396 0
-389 -390 -396 0
389 390 -396 0
-389 390 396 0
391 -392 397 0
-391 -392 -397 0
391 392 -397 0
-391 392 397 0
393 -394 398 0
-393 -394 -398 0
393 394 -398 0
-393 394 398 0
395 -396 399 0
-395 -396 -399 0
395 396 -399 0
-395 396 399 0
397 -398 400 0
-397 -398 -400 0
397 398 -400 0
-397 398 400 0
399 400 0
-399 -400 0
-1 -4 401 0
1 -4 -401 0
-1 4 -401 0
1 4 401 0
7 -9 402 0
-7 -9 -402 0
7 9 -402 0
-7 9 402 0
10 -13 403 0
-10 -13 -403 0
10 13 -403 0
-10 13 403 0
-14 16 404 0
14 16 -404 0
-14 -16 -404 0
14 -16 404 0
-17 21 405 0
17 21 -405 0
-17 -21 -405 0
17 -21 405 0
-22 -23 406 0
22 -23 -406 0
-22 23 -406 0
22 23 406 0
-24 25 407 0
24 25 -407 0
-24 -25 -407 0
24 -25 407 0
-26 27 408 0
26 27 -408 0
-26 -27 -408 0
26 -27 408 0
29 30 409 0
-29 30 -409 0
29 -30 -409 0
-29 -30 409 0
31 -35 410 0
-31 -35 -410 0
31 35 -410 0
-31 35 410 0
-36 -37 411 0
36 -37 -411 0
-36 37 -411 0
36 37 411 0
-38 40 412 0
38 40 -412 0
-38 -40 -412 0
38 -40 412 0
-41 -42 413 0
41 -42 -413 0
-41 42 -413 0
41 42 413 0
400 -401 414 0
-400 -401 -414 0
400 401 -414 0
-400 401 414 0
402 -403 415 0
-402 -403 -415 0
402 403 -415 0
-402 403 415 0
404 -405 416 0
-404 -405 -416 0
404 405 -416 0
-404 405 416 0
406 -407 417 0
-406 -407 -417 0
406 407 -417 0
-406 407 417 0
408 -409 418 0
-408 -409 -418 0
408 409 -418 0
-408 409 418 0
410 -411 419 0
-410 -411 -419 0
410 411 -419 0
-410 411 419 0
412 -413 420 0
-412 -413 -420 0
412 413 -420 0
-412 413 420 0
414 -415 421 0
-414 -415 -421 0
414 415 -421 0
-414 415 421 0
416 -417 422 0
-416 -417 -422 0
416 417 -422 0
-416 417 422 0
418 -419 423 0
-418 -419 -423 0
418 419 -423 0
-418 419 423 0
420 -421 424 0
-420 -421 -424 0
420 421 -424 0
-420 421 424 0
422 -423 425 0
-422 -423 -425 0
422 423 -425 0
-422 423 425 0
424 425 0
-424 -425 0
-1 2 426 0
1 2 -426 0
-1 -2 -426 0
1 -2 426 0
5 8 427 0
-5 8 -427 0
5 -8 -427 0
-5 -8 427 0
9 11 428 0
-9 11 -428 0
9 -11 -428 0
-9 -11 428 0
-13 -14 429 0
13 -14 -429 0
-13 14 -429 0
13 14 429 0
15 16 430 0
-15 16 -430 0
15 -16 -430 0
-15 -16 430 0
-17 -21 431 0
17 -21 -431 0
-17 21 -431 0
17 21 431 0
22 -23 432 0
-22 -23 -432 0
22 23 -432 0
-22 23 432 0
-24 -25 433 0
24 -25 -433 0
-24 25 -433 0
24 25 433 0
-27 28 434 0
27 28 -434 0
-27 -28 -434 0
27 -28 434 0
-29 31 435 0
29 31 -435 0
-29 -31 -435 0
29 -31 435 0
32 -33 436 0
-32 -33 -436 0
32 33 -436 0
-32 33 436 0
34 -35 437 0
-34 -35 -437 0
34 35 -437 0
-34 35 437 0
37 -39 438 0
-37 -39 -438 0
37 39 -438 0
-37 39 438 0
-40 -44 439 0
40 -44 -439 0
-40 44 -439 0
40 44 439 0
45 -46 440 0
-45 -46 -440 0
45 46 -440 0
-45 46 440 0
-48 -49 441 0
48 -49 -441 0
-48 49 -441 0
48 49 441 0
426 -427 442 0
-426 -427 -442 0
426 427 -442 0
-426 427 442 0
428 -429 443 0
-428 -429 -443 0
428 429 -443 0
-428 429 443 0
430 -431 444 0
-430 -431 -444 0
430 431 -444 0
-430 431 444 0
432 -433 445 0
-432 -433 -445 0
432 433 -445 0
-432 433 445 0
434 -435 446 0
-434 -435 -446 0
434 435 -446 0
-434 435 446 0
436 -437 447 0
-436 -437 -447 0
436 437 -447 0
-436 437 447 0
438 -439 448 0
-438 -439 -448 0
438 439 -448 0
-438 439 448 0
440 -441 449 0
-440 -441 -449 0
440 441 -449 0
-440 441 449 0
442 -443 450 0
-442 -443 -450 0
442 443 -450 0
-442 443 450 0
444 -445 451 0
-444 -445 -451 0
444 445 -451 0
-444 445 451 0
446 -447 452 0
-446 -447 -452 0
446 447 -452 0
-446 447 452 0
448 -449 453 0
-448 -449 -453 0
448 449 -453 0
-448 449 453 0
450 -451 454 0
-450 -451 -454 0
450 451 -454 0
-450 451 454 0
452 -453 455 0
-452 -453 -455 0
452 453 -455 0
-452 453 455 0
454 455 0
-454 -455 0
-2 3 456 0
2 3 -456 0
-2 -3 -456 0
2 -3 456 0
8 -9 457 0
-8 -9 -457 0
8 9 -457 0
-8 9 457 0
11 12 458 0
-11 12 -458 0
11 -12 -458 0
-11 -12 458 0
-13 18 459 0
13 18 -459 0
-13 -18 -459 0
13 -18 459 0
19 23 460 0
-19 23 -460 0
19 -23 -460 0
-19 -23 460 0
24 -25 461 0
-24 -25 -461 0
24 25 -461 0
-24 25 461 0
26 27 462 0
-26 27 -462 0
26 -27 -462 0
-26 -27 462 0
28 30 463 0
-28 30 -463 0
28 -30 -463 0
-28 -30 463 0
-32 -34 464 0
32 -34 -464 0
-32 34 -464 0
32 34 464 0
-36 -39 465 0
36 -39 -465 0
-36 39 -465 0
36 39 465 0
-41 -44 466 0
41 -44 -466 0
-41 44 -466 0
41 44 466 0
45 46 467 0
-45 46 -467 0
45 -46 -467 0
-45 -46 467 0
-47 49 468 0
47 49 -468 0
-47 -49 -468 0
47 -49 468 0
456 -457 469 0
-456 -457 -469 0
456 457 -469 0
-456 457 469 0
458 -459 470 0
-458 -459 -470 0
458 459 -470 0
-458 459 470 0
460 -461 471 0
-460 -461 -471 0
460 461 -471 0
-460 461 471 0
462 -463 472 0
-462 -463 -472 0
462 463 -472 0
-462 463 472 0
464 -465 473 0
-464 -465 -473 0
464 465 -473 0
-464 465 473 0
466 -467 474 0
-466 -467 -474 0
466 467 -474 0
-466 467 474 0
468 -469 475 0
-468 -469 -475 0
468 469 -475 0
-468 469 475 0
470 -471 476 0
-470 -471 -476 0
470 471 -476 0
-470 471 476 0
472 -473 477 0
-472 -473 -477 0
472 473 -477 0
-472 473 477 0
474 -475 478 0
-474 -475 -478 0
474 475 -478 0
-474 475 478 0
476 -477 479 0
-476 -477 -479 0
476 477 -479 0
-476 477 479 0
478 479 0
-478 -479 0
-1 -2 480 0
1 -2 -480 0
-1 2 -480 0
1 2 480 0
-4 5 481 0
4 5 -481 0
-4 -5 -481 0
4 -5 481 0
7 -10 482 0
-7 -10 -482 0
7 10 -482 0
-7 10 482 0
-14 -15 483 0
14 -15 -483 0
-14 15 -483 0
14 15 483 0
18 -20 484 0
-18 -20 -484 0
18 20 -484 0
-18 20 484 0
-21 22 485 0
21 22 -485 0
-21 -22 -485 0
21 -22 485 0
24 26 486 0
-24 26 -486 0
24 -26 -486 0
-24 -26 486 0
-28 29 487 0
28 29 -487 0
-28 -29 -487 0
28 -29 487 0
32 33 488 0
-32 33 -488 0
32 -33 -488 0
-32 -33 488 0
-34 35 489 0
34 35 -489 0
-34 -35 -489 0
34 -35 489 0
-37 38 490 0
37 38 -490 0
-37 -38 -490 0
37 -38 490 0
-39 40 491 0
39 40 -491 0
-39 -40 -491 0
39 -40 491 0
41 -43 492 0
-41 -43 -492 0
41 43 -492 0
-41 43 492 0
44 46 493 0
-44 46 -493 0
44 -46 -493 0
-44 -46 493 0
-49 -50 494 0
49 -50 -494 0
-49 50 -494 0
49 50 494 0
480 -481 495 0
-480 -481 -495 0
480 481 -495 0
-480 481 495 0
482 -483 496 0
-482 -483 -496 0
482 483 -496 0
-482 483 496 0
484 -485 497 0
-484 -485 -497 0
484 485 -497 0
-484 485 497 0
486 -487 498 0
-486 -487 -498 0
486 487 -498 0
-486 487 498 0
488 -489 499 0
-488 -489 -499 0
488 489 -499 0
-488 489 499 0
490 -491 500 0
-490 -491 -500 0
490 491 -500 0
-490 491 500 0
492 -493 501 0
-492 -493 -501 0
492 493 -501 0
-492 493 501 0
494 -495 502 0
-494 -495 -502 0
494 495 -502 0
-494 495 502 0
496 -497 503 0
-496 -497 -503 0
496 497 -503 0
-496 497 503 0
498 -499 504 0
-498 -499 -504 0
498 499 -504 0
-498 499 504 0
500 -501 505 0
-500 -501 -505 0
500 501 -505 0
-500 501 505 0
502 -503 506 0
-502 -503 -506 0
502 503 -506 0
-502 503 506 0
504 -505 507 0
-504 -505 -507 0
504 505 -507 0
-504 505 507 0
506 507 0
-506 -507 0
1 4 508 0
-1 4 -508 0
1 -4 -508 0
-1 -4 508 0
-7 8 509 0
7 8 -509 0
-7 -8 -509 0
7 -8 509 0
-10 -11 510 0
10 -11 -510 0
-10 11 -510 0
10 11 510 0
13 -14 511 0
-13 -14 -511 0
13 14 -511 0
-13 14 511 0
-17 19 512 0
17 19 -512 0
-17 -19 -512 0
17 -19 512 0
-20 -21 513 0
20 -21 -513 0
-20 21 -513 0
20 21 513 0
-23 -28 514 0
23 -28 -514 0
-23 28 -514 0
23 28 514 0
-31 -36 515 0
31 -36 -515 0
-31 36 -515 0
31 36 515 0
-37 -40 516 0
37 -40 -516 0
-37 40 -516 0
37 40 516 0
42 -43 517 0
-42 -43 -517 0
42 43 -517 0
-42 43 517 0
507 -508 518 0
-507 -508 -518 0
507 508 -518 0
-507 508 518 0
509 -510 519 0
-509 -510 -519 0
509 510 -519 0
-509 510 519 0
511 -512 520 0
-511 -512 -520 0
511 512 -520 0
-511 512 520 0
513 -514 521 0
-513 -514 -521 0
513 514 -521 0
-513 514 521 0
515 -516 522 0
-515 -516 -522 0
515 516 -522 0
-515 516 522 0
517 -518 523 0
-517 -518 -523 0
517 518 -523 0
-517 518 523 0
519 -520 524 0
-519 -520 -524 0
519 520 -524 0
-519 520 524 0
521 -522 525 0
-521 -522 -525 0
521 522 -525 0
-521 522 525 0
-523 -524 525 0
523 -524 -525 0
-523 524 -525 0
523 524 525 0
-1 -2 526 0
1 -2 -526 0
-1 2 -526 0
1 2 526 0
-3 -4 527 0
3 -4 -527 0
-3 4 -527 0
3 4 527 0
5 -7 528 0
-5 -7 -528 0
5 7 -528 0
-5 7 528 0
-8 -9 529 0
8 -9 -529 0
-8 9 -529 0
8 9 529 0
12 -14 530 0
-12 -14 -530 0
12 14 -530 0
-12 14 530 0
-15 -16 531 0
15 -16 -531 0
-15 16 -531 0
15 16 531 0
18 19 532 0
-18 19 -532 0
18 -19 -532 0
-18 -19 532 0
22 23 533 0
-22 23 -533 0
22 -23 -533 0
-22 -23 533 0
-24 25 534 0
24 25 -534 0
-24 -25 -534 0
24 -25 534 0
-28 -30 535 0
28 -30 -535 0
-28 30 -535 0
28 30 535 0
31 33 536 0
-31 33 -536 0
31 -33 -536 0
-31 -33 536 0
37 38 537 0
-37 38 -537 0
37 -38 -537 0
-37 -38 537 0
39 -40 538 0
-39 -40 -538 0
39 40 -538 0
-39 40 538 0
-41 42 539 0
41 42 -539 0
-41 -42 -539 0
41 -42 539 0
-44 45 540 0
44 45 -540 0
-44 -45 -540 0
44 -45 540 0
-47 -48 541 0
47 -48 -541 0
-47 48 -541 0
47 48 541 0
525 -526 542 0
-525 -526 -542 0
525 526 -542 0
-525 526 542 0
527 -528 543 0
-527 -528 -543 0
527 528 -543 0
-527 528 543 0
529 -530 544 0
-529 -530 -544 0
529 530 -544 0
-529 530 544 0
531 -532 545 0
-531 -532 -545 0
531 532 -545 0
-531 532 545 0
533 -534 546 0
-533 -534 -546 0
533 534 -546 0
-533 534 546 0
535 -536 547 0
-535 -536 -547 0
535 536 -547 0
-535 536 547 0
537 -538 548 0
-537 -538 -548 0
537 538 -548 0
-537 538 548 0
539 -540 549 0
-539 -540 -549 0
539 540 -549 0
-539 540 549 0
541 -542 550 0
-541 -542 -550 0
541 542 -550 0
-541 542 550 0
543 -544 551 0
-543 -544 -551 0
543 544 -551 0
-543 544 551 0
545 -546 552 0
-545 -546 -552 0
545 546 -552 0
-545 546 552 0
547 -548 553 0
-547 -548 -553 0
547 548 -553 0
-547 548 553 0
549 -550 554 0
-549 -550 -554 0
549 550 -554 0
-549 550 554 0
551 -552 555 0
-551 -552 -555 0
551 552 -555 0
-551 552 555 0
-553 -554 555 0
553 -554 -555 0
-553 554 -555 0
553 554 555 0
